p cnf 21 25
-14 20 -2 0
8 21 8 0
-1 -2 -3 -4 -5 -6 -7 -8 -9 -10 -11 -12 -13 -14 -15 -16 -17 -18 -19 -20 -21 0
-5 3 -13 0
15 -15 -13 0
1 12 4 0
16 -17 1 0
1 2 3 4 5 6 7 8 9 10 11 12 13 14 15 16 17 18 19 20 21 0
-9 6 6 0
1 3 -12 0
4 13 -10 0
-7 19 -3 0
-5 19 -11 0
14 12 -9 0
-2 -21 -5 0
-6 -13 16 0
3 16 1 0
14 -14 -19 0
-14 18 -2 0
-21 -11 20 0
-21 -1 17 0
2 -3 18 0
-9 20 -15 0
4 -1 2 0
-12 13 -1 0
